CMD:
./solvers/bin/cadical --plain --no-reduce -t 1600 ./data/cnfs//6s120/6s120.19.cnf

c --- [ banner ] -------------------------------------------------------------
c 
c CaDiCaL SAT Solver
c Copyright (c) 2016-2024
c A. Biere, M. Fleury, N. Froleyks, K. Fazekas, F. Pollitt, T. Faller
c JKU Linz, University of Freiburg, TU Wien
c 
c Version 2.1.3 5296d3d2a9bf48c154ab2acb5e44625776d821bf
c g++ (Gentoo 12.3.1_p20230526 p2) 12.3.1 20230526 -Wall -Wextra -O3 -DNDEBUG
c Sat Aug 9 07:26:21 PDT 2025 Linux cedar2.int.cedar.computecanada.ca 5.14.0-362.24.2.el9_3.x86_64 x86_64
c 
c --- [ limit ] --------------------------------------------------------------
c 
c setting time limit to 1600 seconds real time (due to '-t 1600')
c 
c --- [ parsing input ] ------------------------------------------------------
c 
c reading DIMACS file from './data/cnfs//6s120/6s120.19.cnf'
c opening file to read './data/cnfs//6s120/6s120.19.cnf'
c found 'p cnf 46729 136438' header
c parsed 136438 clauses in 0.02 seconds process time
c 
c --- [ options ] ------------------------------------------------------------
c 
c   --compact=false                (different from default 'true')
c   --decompose=false              (different from default 'true')
c   --deduplicate=false            (different from default 'true')
c   --elim=false                   (different from default 'true')
c   --probe=false                  (different from default 'true')
c   --reduce=false                 (different from default 'true')
c   --subsume=false                (different from default 'true')
c   --ternary=false                (different from default 'true')
c   --transred=false               (different from default 'true')
c   --vivify=false                 (different from default 'true')
c 
c --- [ solving ] ------------------------------------------------------------
c 
c time measured in process time since initialization
c 
c  seconds  reductions  redundant  irredundant
c         MB    restarts       trail       variables
c          level   conflicts       glue         remaining
c 
c *  0.02 24  0 0   0    0    0  0% 0 130565 42848 92%
c {  0.02 24  0 0   0    0    0  0% 0 130565 42848 92%
c i  0.07 25 187 0  20  612  539 27% 6 130565 42832 92%
c i  0.07 25 266 0  20  702  621 34% 5 130565 42806 92%
c i  0.07 25 267 0  20  703  621 34% 5 130565 42770 92%
c i  0.07 25 268 0  20  705  621 34% 5 130565 42699 91%
c i  0.07 25 277 0  20  743  658 37% 5 130565 42698 91%
c i  0.09 25 249 0  27  952  842 37% 5 130565 42674 91%
c }  0.09 25 237 0  27 1002  885 36% 5 130565 42674 91%
c [  0.09 25  0 0  27 1002  885  0% 0 130565 42674 91%
c O  0.09 25 63 0  27 1003  886 13% 1 130565 42674 91%
c i  0.14 26 705 0  28 2209 1924 81% 11 130565 42550 91%
c i  0.15 26 620 0  28 2399 2067 73% 10 130565 42532 91%
c ]  0.18 26 460 0  28 3002 2575 57% 9 130565 42532 91%
c {  0.18 26 237 0  28 3002 2575 36% 5 130565 42532 91%
c F  0.18 26 237 0  28 3004 2577 36% 5 130565 42532 91%
c i  0.18 26 227 0  28 3053 2624 35% 5 130565 42525 91%
c i  0.19 26 196 0  30 3317 2855 34% 5 130565 42508 91%
c i  0.19 26 190 0  30 3385 2914 34% 4 130565 42483 91%
c i  0.19 26 179 0  30 3515 3029 33% 4 130565 42465 91%
c 
c  seconds   reductions  redundant  irredundant
c         MB     restarts       trail       variables
c           level   conflicts       glue         remaining
c 
c i  0.20 26 163 0  51 3768 3261 32% 4 130565 42434 91%
c i  0.26 26 109 0 151 5407 4718 27% 4 130565 42433 91%
c #  0.28 26 101 0 154 6005 5227 26% 4 130565 42433 91%
c }  0.33 27 88 0 278 7002 6133 25% 4 130565 42433 91%
c [  0.33 27 460 0 278 7002 6133 57% 9 130565 42433 91%
c I  0.42 27 191 0 280 10009 8435 31% 10 130565 42433 91%
c i  0.47 27 147 0 282 11556 9286 26% 9 130565 41920 90%
c i  0.47 27 146 0 282 11643 9367 26% 9 130565 41858 90%
c ]  0.62 28 113 0 283 15002 12275 24% 8 130565 41858 90%
c {  0.62 28 88 0 283 15002 12275 25% 4 130565 41858 90%
c B  0.63 28 88 0 283 15010 12282 25% 4 130565 41858 90%
c i  0.89 29 63 0 839 19095 15768 22% 4 130565 41847 90%
c i  0.92 29 60 0 911 19771 16294 22% 4 130565 41817 89%
c i  0.96 29 57 0 1000 20461 16886 22% 4 130565 41790 89%
c i  0.98 29 56 0 1060 20778 17131 21% 4 130565 41779 89%
c i  0.99 29 55 0 1101 20980 17318 21% 4 130565 41716 89%
c W  1.03 29 55 0 1109 21011 12076 21% 4 120494 41716 89%
c i  1.07 29 53 0 1181 21708 12637 21% 4 120494 38437 82%
c }  1.07 29 53 0 1181 21710 12637 21% 4 120494 38337 82%
c 0  1.07 29 53 0 1181 21710 12637 21% 4 120494 38337 82%
c 
c --- [ result ] -------------------------------------------------------------
c 
s UNSATISFIABLE
c 
c --- [ run-time profiling ] -------------------------------------------------
c 
c process time taken by individual solving procedures
c (percentage relative to process time for solving)
c 
c         1.04   99.99% search
c         0.63   60.52% unstable
c         0.38   36.12% stable
c         0.03    3.27% walk
c         0.02    2.11% parse
c         0.00    0.09% lucky
c         0.00    0.00% simplify
c   =================================
c         1.04   97.89% solve
c 
c last line shows process time for solving
c (percentage relative to total process time)
c 
c --- [ statistics ] ---------------------------------------------------------
c 
c chronological:              8925        41.11 %  of conflicts
c conflicts:                 21710     20792.11    per second
c decisions:                 92775     88852.52    per second
c fixed:                      8392        17.96 %  of all variables
c learned:                   20663        95.18 %  per conflict
c learned_lits:             457326       100.00 %  learned literals
c minimized:                     0         0.00 %  learned literals
c shrunken:                 123329        26.97 %  learned literals
c minishrunken:              58500        12.79 %  learned literals
c otfs:                        664         3.06 %  of conflict
c propagations:           14740913        14.12 M  per second
c rephased:                      6      3618.33    interval
c restarts:                   1181        18.38    interval
c stabilizing:                   2        46.03 %  of conflicts
c subsumed:                   2748         1.82 %  of all clauses
c strengthened:                654         0.43 %  of all clauses
c walked:                        1     21710.00    interval
c 
c seconds are measured in process time for solving
c 
c --- [ resources ] ----------------------------------------------------------
c 
c total process time since initialization:         1.07    seconds
c total real time since initialization:            1.07    seconds
c maximum resident set size of process:           30.80    MB
c 
c --- [ shutting down ] ------------------------------------------------------
c 
c exit 20
